10J3M/DAT/10J3MNNL-8.dat
10 3
25.7749 25.7749
28.7306 28.7306
19.1616 19.1616
24.5211 24.5211
30.1686 30.1686
28.838 28.838
21.6223 21.6223
29.112 29.112
31.2739 31.2739
27.431 27.431
266.634